c turning on binary mode checking
c parsing input formula with 259840 variables and 1039929 clauses
c finished parsing, read 2945828 bytes from proof file
c detected empty clause; start verification via backward checking
c 2018 of 1039929 clauses in core                            
c 614 of 119445 lemmas in core using 8299 resolution steps
c 0 RAT lemmas in core; 40 redundant literals in core lemmas
s VERIFIED
c verification time: 1.515 seconds
